174861
42,78,73,23,101,14,102,60,25,33,82,56,79,92,11,7,96,105,97,30,51,54,28,29,4,64,12,87,68,5,76,15,16,89,63,19,55,39,45,85,44,80,41,18,98,67,99,34,62,83,48,17,93,69,37,104,2,95,90,59,77,100,66,40,103,94,70,53,47,84,10,35,36,38,72,81,71,1,24,20,21,61,50,32,6,31,52,74,3,46,13,49,8,91,22,88,9,65,58,43,26,27,57,75,86,0